NAME: cluster_15
TYPE: TSP
DIMENSION: 16
EDGE_WEIGHT_TYPE: EUC_2D
NODE_COORD_SECTION
1 12000.00 16000.00
2 4779.18 13963.31
3 11632.15 13308.78
4 13616.18 12600.59
5 12088.45 10610.17
6 7047.50 11923.63
7 15331.73 9685.08
8 8448.74 15044.76
9 14708.24 11243.96
10 4881.07 15237.36
11 9644.17 11362.11
12 8739.30 13581.01
13 8221.05 13064.10
14 9086.20 11845.54
15 7210.12 13159.47
16 8575.52 12994.96
EOF
